(set-info :smt-lib-version 2.6)
(set-info :category "crafted")
(set-logic QF_FFA)
(define-sort FF0 () (_ FiniteField 52435875175126190479447740508185965837690552500527637822603658699938581184513))
(declare-fun x10_n3_alt () FF0)
(declare-fun x13_n6_alt () FF0)
(declare-fun x11_n9_alt () FF0)
(declare-fun x6_n12_alt () FF0)
(declare-fun x4_n2_alt () FF0)
(declare-fun x3_n5_alt () FF0)
(declare-fun x5_n8_alt () FF0)
(declare-fun x7_n11_alt () FF0)
(declare-fun x2_n14_alt () FF0)
(declare-fun x8_n1_alt () FF0)
(declare-fun x0_n4_alt () FF0)
(declare-fun x9_n7_alt () FF0)
(declare-fun x1_n10_alt () FF0)
(declare-fun x12_n0_alt () FF0)
(declare-fun return_n13_alt () FF0)
(declare-fun is_zero_inv_n15_alt () FF0)
(declare-fun x10_n3 () FF0)
(declare-fun x13_n6 () FF0)
(declare-fun x11_n9 () FF0)
(declare-fun x6_n12 () FF0)
(declare-fun x4_n2 () FF0)
(declare-fun x3_n5 () FF0)
(declare-fun x5_n8 () FF0)
(declare-fun x7_n11 () FF0)
(declare-fun x2_n14 () FF0)
(declare-fun x8_n1 () FF0)
(declare-fun x0_n4 () FF0)
(declare-fun x9_n7 () FF0)
(declare-fun x1_n10 () FF0)
(declare-fun x12_n0 () FF0)
(declare-fun return_n13 () FF0)
(declare-fun is_zero_inv_n15 () FF0)
(assert 
  (let ((let0 (as ff0 FF0)))
  (let ((let1 x10_n3_alt))
  (let ((let2 x13_n6_alt))
  (let ((let3 x11_n9_alt))
  (let ((let4 x6_n12_alt))
  (let ((let5 x4_n2_alt))
  (let ((let6 x3_n5_alt))
  (let ((let7 x5_n8_alt))
  (let ((let8 x7_n11_alt))
  (let ((let9 x2_n14_alt))
  (let ((let10 x8_n1_alt))
  (let ((let11 x0_n4_alt))
  (let ((let12 x9_n7_alt))
  (let ((let13 x1_n10_alt))
  (let ((let14 x12_n0_alt))
  (let ((let15 (ff.add let14 let13 let12 let11 let10 let9 let8 let7 let6 let5 let4 let3 let2 let1)))
  (let ((let16 (as ff1 FF0)))
  (let ((let17 (as ff52435875175126190479447740508185965837690552500527637822603658699938581184512 FF0)))
  (let ((let18 return_n13_alt))
  (let ((let19 (ff.mul let18 let17)))
  (let ((let20 (ff.add let19 let16)))
  (let ((let21 (ff.mul let20 let15)))
  (let ((let22 (= let21 let0)))
  (let ((let23 is_zero_inv_n15_alt))
  (let ((let24 (ff.mul let23 let15)))
  (let ((let25 (= let24 let18)))
  (let ((let26 (and let25 let22)))
  (let ((let27 x10_n3))
  (let ((let28 x13_n6))
  (let ((let29 x11_n9))
  (let ((let30 x6_n12))
  (let ((let31 x4_n2))
  (let ((let32 x3_n5))
  (let ((let33 x5_n8))
  (let ((let34 x7_n11))
  (let ((let35 x2_n14))
  (let ((let36 x8_n1))
  (let ((let37 x0_n4))
  (let ((let38 x9_n7))
  (let ((let39 x1_n10))
  (let ((let40 x12_n0))
  (let ((let41 (ff.add let40 let39 let38 let37 let36 let35 let34 let33 let32 let31 let30 let29 let28 let27)))
  (let ((let42 return_n13))
  (let ((let43 (ff.mul let42 let17)))
  (let ((let44 (ff.add let43 let16)))
  (let ((let45 (ff.mul let44 let41)))
  (let ((let46 (= let45 let0)))
  (let ((let47 is_zero_inv_n15))
  (let ((let48 (ff.mul let47 let41)))
  (let ((let49 (= let48 let42)))
  (let ((let50 (and let49 let46)))
  (let ((let51 (= let42 let18)))
  (let ((let52 (not let51)))
  (let ((let53 (= let35 let9)))
  (let ((let54 (= let34 let8)))
  (let ((let55 (= let27 let1)))
  (let ((let56 (= let30 let4)))
  (let ((let57 (= let36 let10)))
  (let ((let58 (= let32 let6)))
  (let ((let59 (= let37 let11)))
  (let ((let60 (= let28 let2)))
  (let ((let61 (= let31 let5)))
  (let ((let62 (= let33 let7)))
  (let ((let63 (= let29 let3)))
  (let ((let64 (= let39 let13)))
  (let ((let65 (= let40 let14)))
  (let ((let66 (= let38 let12)))
  (let ((let67 (and let66 let65 let64 let63 let62 let61 let60 let59 let58 let57 let56 let55 let54 let53)))
  (let ((let68 (and let67 let52 let50 let26)))
  let68
)))))))))))))))))))))))))))))))))))))))))))))))))))))))))))))))))))))
)
(check-sat)
